models/instances/7x7.dzn
m=49;
gx=[1, 1, 1, 1, 1, 1, 1, 2, 2, 2, 2, 2, 2, 2, 3, 3, 3, 3, 3, 3, 3, 4, 4, 4, 4, 4, 4, 4, 5, 5, 5, 5, 5, 5, 5, 6, 6, 6, 6, 6, 6, 6, 7, 7, 7, 7, 7, 7, 7];
gy=[1, 2, 3, 4, 5, 6, 7, 1, 2, 3, 4, 5, 6, 7, 1, 2, 3, 4, 5, 6, 7, 1, 2, 3, 4, 5, 6, 7, 1, 2, 3, 4, 5, 6, 7, 1, 2, 3, 4, 5, 6, 7, 1, 2, 3, 4, 5, 6, 7];
N=48;
tx=[0, 1, 1, 1, 1, 2, 1, 2, 1, 3, 1, 3, 1, 4, 1, 4, 1, 5, 1, 5, 1, 6, 1, 6, 2, 3, 2, 3, 2, 5, 2, 5, 3, 4, 3, 4, 3, 5, 3, 5, 4, 5, 4, 5, 5, 6, 5, 6];
ty=[1, 0, 1, -1, 2, 1, -2, -1, 3, 1, -3, -1, 4, 1, -4, -1, 5, 1, -5, -1, 6, 1, -6, -1, 3, 2, -3, -2, 5, 2, -5, -2, 4, 3, -4, -3, 5, 3, -5, -3, 5, 4, -5, -4, 6, 5, -6, -5];
tk=[6, 6, 6, 6, 3, 3, 3, 3, 2, 2, 2, 2, 1, 1, 1, 1, 1, 1, 1, 1, 1, 1, 1, 1, 2, 2, 2, 2, 1, 1, 1, 1, 1, 1, 1, 1, 1, 1, 1, 1, 1, 1, 1, 1, 1, 1, 1, 1];
r90=[43, 36, 29, 22, 15, 8, 1, 44, 37, 30, 23, 16, 9, 2, 45, 38, 31, 24, 17, 10, 3, 46, 39, 32, 25, 18, 11, 4, 47, 40, 33, 26, 19, 12, 5, 48, 41, 34, 27, 20, 13, 6, 49, 42, 35, 28, 21, 14, 7];
r180=[49, 48, 47, 46, 45, 44, 43, 42, 41, 40, 39, 38, 37, 36, 35, 34, 33, 32, 31, 30, 29, 28, 27, 26, 25, 24, 23, 22, 21, 20, 19, 18, 17, 16, 15, 14, 13, 12, 11, 10, 9, 8, 7, 6, 5, 4, 3, 2, 1];
r270=[7, 14, 21, 28, 35, 42, 49, 6, 13, 20, 27, 34, 41, 48, 5, 12, 19, 26, 33, 40, 47, 4, 11, 18, 25, 32, 39, 46, 3, 10, 17, 24, 31, 38, 45, 2, 9, 16, 23, 30, 37, 44, 1, 8, 15, 22, 29, 36, 43];
reflect=[7, 6, 5, 4, 3, 2, 1, 14, 13, 12, 11, 10, 9, 8, 21, 20, 19, 18, 17, 16, 15, 28, 27, 26, 25, 24, 23, 22, 35, 34, 33, 32, 31, 30, 29, 42, 41, 40, 39, 38, 37, 36, 49, 48, 47, 46, 45, 44, 43];
r180_reflect=[43, 44, 45, 46, 47, 48, 49, 36, 37, 38, 39, 40, 41, 42, 29, 30, 31, 32, 33, 34, 35, 22, 23, 24, 25, 26, 27, 28, 15, 16, 17, 18, 19, 20, 21, 8, 9, 10, 11, 12, 13, 14, 1, 2, 3, 4, 5, 6, 7];
r270_reflect=[49, 42, 35, 28, 21, 14, 7, 48, 41, 34, 27, 20, 13, 6, 47, 40, 33, 26, 19, 12, 5, 46, 39, 32, 25, 18, 11, 4, 45, 38, 31, 24, 17, 10, 3, 44, 37, 30, 23, 16, 9, 2, 43, 36, 29, 22, 15, 8, 1];
d_lb=294;
d_ub=384;